0
47
35
34
89
24
19
12
16
49
71
55
12
17
0
20
40
28
0
24
24
18
0
13
44
67
15
22
17
125
13
35
91
41
29
65
0
25
0
0
15
0
21
0
23
31
0
0
24
26
37
83
10
19
25
78
23
0
0
18
132
16
20
21
73
19
14
76
38
69
65
9
34
93
0
25
49
36
37
0
9
56
0
19
0
22
41
56
45
0
0
0
46
38
24
9
70
0
0
39
